
se = 40; % nombre de sessions
gr = 20; % nombre de grups de treball
cl = 7; % nombre de slots
minPapersPerSlot = 3; % minim nombre d'articles per sessio i slot
maxSesionsPar = 14; % maxim nombre de sessions paraleles

npMax = [4, 6, 6, 4, 3, 5, 3]; % nombre maxim de papers per slot

np = [5, 6, 5, 3, 3, 6, 3, 3, 13, 7, 13, 4, 20, 3, 5, 11, 5, 13, 9, 6, 10, 13, 3, 3, 10, 3, 4, 6, 16, 10, 6, 4, 5, 3, 15, 6, 11, 15, 6, 11]; % nombre de papers acceptats a cada sessio

WG = [ {1}, {2}, {3}, {}, {4}, {5}, {6}, {7}, {}, {8}, {9,10}, {11}, {12}, {}, {13}, {14}, {15}, {}, {16}, {17}, {}, {18}, {}, {}, {19}, {20}, {1,2}, {3}, {4}, {5}, {6}, {7}, {}, {8,9,10}, {}, {}, {}, {11,12}, {}, {} ]; % grups per sessio

